c --- [ banner ] -------------------------------------------------------------
c 
c CaDiCaL Radically Simplified CDCL SAT Solver
c Copyright (c) 2016-2021 A. Biere, M. Fleury, N. Froleyks
c 
c Version 1.5.2 a5f15211db36c3956764e18194dd5bd63bf3b5e6
c g++ (GCC) 9.3.0 -Wall -Wextra -O3 -DNDEBUG
c Fri Oct 21 01:27:37 EDT 2022 Linux gra-login3 3.10.0-1160.66.1.el7.x86_64 x86_64
c 
c --- [ limit ] --------------------------------------------------------------
c 
c setting conflict limit to 200000 conflicts (due to '200000')
c 
c --- [ parsing input ] ------------------------------------------------------
c 
c reading DIMACS file from '33.cubes2514.adj'
c opening file to read '33.cubes2514.adj'
c found 'p cnf 6160 1595474' header
c parsed 1595474 clauses in 17.81 seconds process time
c closing file '33.cubes2514.adj'
c after reading 1457566764 bytes 1390.0 MB
c 
c --- [ options ] ------------------------------------------------------------
c 
c all options are set to their default value
c 
c --- [ solving ] ------------------------------------------------------------
c 
c time measured in process time since initialization
c 
c  seconds    reductions  redundant   irredundant
c          MB     restarts       trail       variables
c            level   conflicts       glue         remaining
c 
c * 17.81 1374  0 0   0    0    0  0% 0 1595422 2456 40%
c { 18.18 1396  0 0   0    0    0  0% 0 1595422 2456 40%
c i 19.44 1471 1184 0   0   12   11 40% 3 1595422 2447 40%
c i 20.24 1486 548 0   2   30   27 29% 6 1595422 2439 40%
c i 21.35 1501 343 0   7   60   50 28% 23 1595422 2438 40%
c i 21.56 1506 313 0   8   66   55 28% 22 1595422 2437 40%
c i 21.72 1507 266 0  10   78   60 26% 19 1595422 2410 39%
c i 21.98 1508 248 0  10   85   66 27% 19 1595422 2409 39%
c i 21.99 1508 241 0  10   88   67 26% 19 1595422 2407 39%
c i 21.99 1508 240 0  10   89   67 26% 19 1595422 2406 39%
c i 22.46 1509 207 0  17  122   91 28% 32 1595422 2403 39%
c i 22.64 1509 186 0  23  141  108 28% 31 1595422 2402 39%
c i 22.72 1510 181 0  25  150  116 28% 34 1595422 2401 39%
c i 22.80 1510 178 0  27  156  121 28% 34 1595422 2400 39%
c i 23.24 1511 141 0  32  230  157 26% 32 1595422 2399 39%
c i 23.26 1511 142 0  34  235  160 26% 32 1595422 2397 39%
c i 23.31 1511 143 0  35  240  164 26% 32 1595422 2396 39%
c i 23.34 1511 144 0  36  242  165 26% 33 1595422 2395 39%
c i 23.66 1512 146 0  39  254  175 26% 35 1595422 2394 39%
c i 23.68 1512 146 0  40  255  175 26% 35 1595422 2393 39%
c 
c  seconds     reductions  redundant    irredundant
c          MB      restarts       trail        variables
c             level   conflicts       glue          remaining
c 
c i 23.87 1512 139 0  44  284  191 26% 33 1595422 2391 39%
c - 27.50 1402 137 1  48  300  206 26% 35 246243 2391 39%
c i 27.59 1402 136 1  48  301  206 26% 34 246243 2390 39%
c i 27.86 1402 126 1  51  348  246 26% 34 246243 2389 39%
c i 28.00 1402 112 1  52  420  281 26% 30 246243 2388 39%
c i 28.15 1402 110 1  52  447  303 26% 32 246243 2387 39%
c i 28.16 1402 110 1  53  448  303 26% 32 246243 2386 39%
c i 28.18 1402 110 1  53  451  305 26% 32 246243 2385 39%
c i 28.28 1402 109 1  58  467  319 26% 33 246243 2384 39%
c i 28.31 1402 110 1  59  473  324 26% 33 246243 2383 39%
c i 28.53 1402 106 1  65  503  345 26% 33 246243 2382 39%
c i 28.54 1402 106 1  65  505  346 26% 33 246243 2381 39%
c i 28.69 1402 96 1  76  607  411 27% 33 246243 2380 39%
c i 28.69 1402 95 1  76  617  416 27% 33 246243 2379 39%
c i 28.71 1402 94 1  76  629  421 27% 33 246243 2378 39%
c i 28.75 1402 85 1  76  700  474 27% 30 246243 2377 39%
c i 28.75 1402 85 1  76  702  475 27% 30 246243 2376 39%
c i 28.75 1402 84 1  76  711  480 27% 30 246243 2375 39%
c i 28.76 1402 83 1  76  720  488 28% 30 246243 2374 39%
c i 28.77 1402 83 1  76  721  488 28% 30 246243 2373 39%
c 
c  seconds    reductions  redundant   irredundant
c          MB     restarts       trail       variables
c            level   conflicts       glue         remaining
c 
c i 28.77 1402 83 1  76  730  495 28% 30 246243 2372 39%
c i 28.78 1402 81 1  76  743  504 28% 29 246243 2371 38%
c i 28.79 1402 81 1  76  751  511 28% 29 246243 2370 38%
c i 28.79 1402 80 1  76  755  514 28% 29 246243 2369 38%
c i 28.83 1402 76 1  76  815  562 28% 28 246243 2368 38%
c i 28.87 1402 71 1  76  895  629 28% 27 246243 2367 38%
c i 28.92 1402 71 1  76  911  641 28% 27 246243 2366 38%
c i 28.92 1402 70 1  76  913  642 28% 27 246243 2365 38%
c i 28.93 1402 70 1  76  929  655 28% 27 246243 2364 38%
c i 28.97 1402 69 1  76  960  678 28% 27 246243 2363 38%
c } 29.01 1402 67 1  76 1000  708 28% 27 246243 2363 38%
c [ 29.01 1402  0 1  76 1000  708  0% 0 246243 2363 38%
c O 29.02 1402 13 1  76 1002  710 21% 12 246243 2363 38%
c i 29.09 1402 12 1  76 1007  714 27% 11 246243 2362 38%
c i 29.12 1402 18 1  76 1021  727 31% 14 246243 2361 38%
c i 29.13 1402 21 1  76 1029  732 31% 18 246243 2360 38%
c i 29.13 1402 22 1  76 1032  734 31% 18 246243 2359 38%
c i 29.18 1402 26 1  76 1083  770 32% 23 246243 2358 38%
c i 29.18 1402 26 1  76 1089  775 32% 23 246243 2357 38%
c i 29.20 1402 25 1  76 1127  808 32% 22 246243 2356 38%
c 
c  seconds    reductions  redundant   irredundant
c          MB     restarts       trail       variables
c            level   conflicts       glue         remaining
c 
c - 29.67 1524 26 2  76 1134  727 32% 22 246138 2356 38%
c i 29.76 1524 27 2  76 1160  748 32% 23 246138 2355 38%
c i 29.79 1524 28 2  76 1196  768 32% 25 246138 2354 38%
c i 29.80 1524 28 2  76 1205  775 32% 24 246138 2353 38%
c i 29.82 1524 28 2  76 1214  781 32% 24 246138 2352 38%
c i 29.88 1524 25 2  76 1342  888 32% 22 246138 2351 38%
c i 29.94 1524 25 2  76 1452  975 32% 22 246138 2350 38%
c i 29.97 1524 25 2  76 1493  997 32% 22 246138 2349 38%
c i 30.00 1524 26 2  76 1600 1077 32% 23 246138 2348 38%
c i 30.02 1524 27 2  76 1654 1109 32% 23 246138 2347 38%
c i 30.11 1524 27 2  76 1955 1304 32% 23 246138 2346 38%
c i 30.16 1524 26 2  77 2141 1438 32% 23 246138 2345 38%
c i 30.18 1524 26 2  77 2212 1488 32% 23 246138 2344 38%
c i 30.20 1524 26 2  77 2307 1546 32% 22 246138 2343 38%
c - 30.58 1522 25 3  77 2386 1200 32% 22 246099 2343 38%
c i 31.03 1485 25 3  77 2987 1615 55% 22 246099 2342 38%
c ] 31.03 1485 24 3  77 3001 1622 55% 22 246099 2342 38%
c { 31.03 1485 67 3  77 3001 1622 74% 27 246099 2342 38%
c F 31.05 1485 67 3  77 3003 1623 74% 27 246099 2342 38%
c i 31.05 1485 67 3  77 3003 1623 74% 27 246099 2276 37%
c 
c  seconds    reductions  redundant   irredundant
c          MB     restarts       trail       variables
c            level   conflicts       glue         remaining
c 
c i 31.10 1485 66 3  77 3006 1625 74% 27 246099 2275 37%
c i 31.16 1485 66 3  77 3023 1634 74% 26 246099 2274 37%
c i 31.26 1485 61 3  77 3125 1671 70% 25 246099 2265 37%
c i 31.31 1485 61 3  78 3135 1679 70% 25 246099 2264 37%
c i 31.34 1485 62 3  81 3147 1685 69% 26 246099 2261 37%
c i 31.50 1485 62 3  86 3169 1706 69% 26 246099 2260 37%
c i 31.71 1485 63 3 110 3268 1790 68% 28 246099 2259 37%
c i 31.91 1485 63 3 121 3327 1839 67% 28 246099 2258 37%
c i 31.96 1485 60 3 124 3396 1885 66% 28 246099 2257 37%
c i 32.00 1485 59 3 124 3472 1945 65% 28 246099 2256 37%
c i 32.01 1485 59 3 124 3483 1955 65% 27 246099 2255 37%
c i 32.03 1485 57 3 124 3537 1988 65% 27 246099 2254 37%
c i 32.12 1485 57 3 124 3610 2052 64% 27 246099 2253 37%
c i 32.68 1485 58 3 151 3815 2223 62% 28 246099 2252 37%
c i 32.69 1485 58 3 151 3818 2225 62% 28 246099 2251 37%
c i 32.72 1485 58 3 153 3827 2233 62% 28 246099 2250 37%
c i 32.88 1485 59 3 158 3850 2253 62% 28 246099 2249 37%
c i 33.08 1485 60 3 166 3916 2301 61% 29 246099 2248 36%
c i 33.13 1485 60 3 173 3943 2323 61% 29 246099 2247 36%
c - 34.26 1412 61 4 202 4057 1719 60% 29 170047 2247 36%
c 
c  seconds    reductions  redundant   irredundant
c          MB     restarts       trail       variables
c            level   conflicts       glue         remaining
c 
c i 34.41 1412 61 4 211 4099 1751 60% 30 170047 2246 36%
c i 34.46 1412 61 4 214 4116 1766 60% 30 170047 2245 36%
c i 34.49 1412 61 4 219 4135 1781 59% 30 170047 2244 36%
c i 34.53 1412 61 4 220 4140 1785 59% 30 170047 2243 36%
c i 34.85 1412 61 4 240 4220 1854 59% 30 170047 2242 36%
c i 34.90 1412 60 4 243 4259 1877 59% 30 170047 2241 36%
c i 34.92 1412 60 4 243 4274 1888 59% 30 170047 2240 36%
c i 35.06 1412 59 4 243 4367 1943 58% 30 170047 2239 36%
c i 35.19 1412 59 4 246 4478 2035 58% 30 170047 2238 36%
c i 35.25 1412 58 4 246 4529 2080 58% 30 170047 2237 36%
c i 35.29 1412 58 4 246 4574 2111 58% 30 170047 2236 36%
c i 35.52 1412 55 4 254 4918 2354 57% 29 170047 2235 36%
c 2 36.24 1412 56 4 266 5000 3814 56% 29 169970 2221 36%
c p 40.43 1412 56 4 266 5000 7474 56% 29 169970 2154 35%
c d 40.71 1412 56 4 266 5000 7344 56% 29 169780 2153 35%
c - 41.22 1337 47 5 276 5903 2145 55% 27 169780 2153 35%
c # 41.27 1337 47 5 276 6006 2216 55% 27 169780 2153 35%
c } 41.72 1337 43 5 276 7002 2929 54% 25 169780 2153 35%
c [ 41.72 1337 24 5 276 7002 2929 55% 22 169780 2153 35%
c - 42.14 1337 25 6 277 8122 2391 50% 21 169780 2153 35%
c 
c  seconds    reductions   redundant   irredundant
c          MB     restarts        trail       variables
c            level    conflicts       glue         remaining
c 
c I 42.83 1337 24 6 278 10007 3609 50% 21 169780 2153 35%
c - 43.37 1338 30 7 279 10705 2901 49% 24 169780 2153 35%
c - 44.62 1337 41 8 281 13656 3416 48% 34 169780 2153 35%
c 2 45.22 1337 44 8 281 15000 5675 48% 36 169780 2153 35%
c p 48.60 1337 44 8 281 15000 10968 48% 36 169780 2148 35%
c d 48.79 1337 44 8 281 15000 10876 48% 36 162075 2146 35%
c ] 48.90 1337 44 8 281 15002 10878 48% 36 162075 2146 35%
c { 48.90 1337 43 8 281 15002 10878 54% 25 162075 2146 35%
c B 48.94 1337 43 8 281 15009 10885 54% 25 162075 2146 35%
c - 50.79 1337 40 9 383 16980 4343 53% 25 162075 2146 35%
c s 51.28 1338 36 9 383 18688 4861 53% 23 160108 2146 35%
c v 53.64 1338 36 9 383 18688 4861 53% 23 160085 2146 35%
c w 53.70 1338 36 9 383 18688 4858 53% 23 160085 2146 35%
c t 53.71 1338 36 9 383 18688 4839 53% 23 160073 2146 35%
c e 54.09 1340 36 9 383 18688 4534 53% 23 156860 620 10%
c s 54.16 1340 36 9 383 18688 4533 53% 23 155713 620 10%
c - 55.36 1340 32 10 383 20615 4116 86% 21 155713 620 10%
c W 55.57 1340 31 10 383 21012 4351 85% 21 155713 620 10%
c - 56.43 1340 28 11 395 24551 4062 85% 19 155713 620 10%
c F 57.13 1340 25 11 399 28013 6060 84% 18 155713 620 10%
c 
c  seconds    reductions    redundant   irredundant
c          MB      restarts        trail       variables
c            level     conflicts       glue        remaining
c 
c - 58.54 1340 26 12 515 28845 4534 84% 19 155713 620 10%
c p 60.10 1340 25 12 527 30001 7572 84% 19 155713 620 10%
c } 60.84 1340 25 12 576 31003 8260 85% 19 155713 620 10%
c [ 60.84 1340 44 12 576 31003 8260 182% 36 155713 620 10%
c - 61.75 1340 39 13 576 33497 5156 160% 32 155713 620 10%
c B 62.60 1340 35 13 579 36014 6588 145% 30 155713 620 10%
c - 63.62 1340 35 14 580 38505 5465 135% 29 155713 620 10%
c ] 64.23 1340 34 14 582 40381 6731 129% 29 155713 620 10%
c 1 64.23 1340 34 14 582 40381 6731 129% 29 155713 620 10%
c 
c --- [ writing output ] -----------------------------------------------------
c 
c writing simplified CNF to DIMACS file 'simp/33.cubes2514.adj.simp1'
c * 64.23 1340 34 14 582 40381 6731 129% 29 155713 620 10%
c opening file to write 'simp/33.cubes2514.adj.simp1'
c writing 'p cnf 6160 155713' header
c closing file 'simp/33.cubes2514.adj.simp1'
c after writing 74779568 bytes 71.3 MB
c wrote 155713 clauses in 0.49 seconds process time
c 
c --- [ writing extension ] --------------------------------------------------
c 
c writing extension stack to 'simp/33.cubes2514.adj.ext1'
c opening file to write 'simp/33.cubes2514.adj.ext1'
c closing file 'simp/33.cubes2514.adj.ext1'
c after writing 97494 bytes 0.1 MB
c wrote 4319 witnesses in 0.00 seconds process time
c 
c --- [ result ] -------------------------------------------------------------
c 
s SATISFIABLE
c 
c --- [ run-time profiling ] -------------------------------------------------
c 
c process time taken by individual solving procedures
c (percentage relative to process time for solving)
c 
c        33.57   72.31% search
c        24.12   51.96% unstable
c        17.81   38.37% parse
c        12.85   27.69% simplify
c         8.98   19.34% stable
c         8.71   18.75% probe
c         2.40    5.17% vivify
c         0.70    1.52% elim
c         0.36    0.78% lucky
c         0.13    0.29% subsume
c         0.11    0.23% walk
c         0.07    0.15% ternary
c   =================================
c        46.42   71.72% solve
c 
c last line shows process time for solving
c (percentage relative to total process time)
c 
c --- [ statistics ] ---------------------------------------------------------
c 
c chronological:              6479        16.04 %  of conflicts
c conflicts:                 40381       869.87    per second
c decisions:                 83563      1800.09    per second
c eliminated:                 1526        24.77 %  of all variables
c fixed:                       853        13.85 %  of all variables
c learned:                   39641        98.17 %  per conflict
c learned_lits:            7220645       100.00 %  learned literals
c minimized:                     0         0.00 %  learned literals
c shrunken:                5166167        71.55 %  learned literals
c minishrunken:             328374         4.55 %  learned literals
c propagations:            3576025         0.08 M  per second
c reduced:                   18569        45.98 %  per conflict
c rephased:                      8      5047.62    interval
c restarts:                    582        69.38    interval
c stabilizing:                   3        47.99 %  of conflicts
c substituted:                  17         0.28 %  of all variables
c subsumed:                  17211         0.51 %  of all clauses
c strengthened:               3579         0.11 %  of all clauses
c ternary:                    2959         0.70 %  of resolved
c vivified:                     42         0.00 %  of all clauses
c walked:                        1     40381.00    interval
c weakened:                   3466         2.99    average size
c 
c seconds are measured in process time for solving
c 
c --- [ resources ] ----------------------------------------------------------
c 
c total process time since initialization:        64.72    seconds
c total real time since initialization:           65.38    seconds
c maximum resident set size of process:         1643.30    MB
c 
c --- [ shutting down ] ------------------------------------------------------
c 
c exit 10
WARNING! DIMACS header mismatch: wrong number of variables.
============================[ Problem Statistics ]=============================
|                                                                             |
|  Number of variables:          2719                                         |
|  Number of clauses:          155715                                         |
|  Parse time:                   1.08 s                                       |
|  Simplification time:          0.03 s                                       |
|                                                                             |
============================[ Search Statistics ]====================================================
| Conflicts |          ORIGINAL         |          LEARNT          | Num Sols |      SUBGRAPHS      |
|           |    Vars  Clauses Literals |    Limit  Clauses Lit/Cl |          | Canonical Noncanon. |
=====================================================================================================
|       100 |    2625   155715 16024569 |     2000      100    102 |        0 |        15         0 |
|       271 |    2625   155736 16024745 |     2000      271     94 |        0 |        30        21 |
|       732 |    2625   155972 16028248 |     2000      732     63 |        0 |        92       257 |
|      1093 |    2625   155996 16029223 |     2000     1093     77 |        0 |       111       281 |
|      1680 |    2625   156077 16030770 |     2000     1680     88 |        0 |       130       362 |
|      2476 |    2625   156114 16031649 |     3603     1479     65 |        0 |       137       399 |
|      3671 |    2625   156170 16032413 |     3603     2674     85 |        0 |       151       455 |
|      5502 |    2625   156293 16033884 |     5001     2703     66 |        0 |       198       578 |
|      8162 |    2625   156391 16035748 |     6307     2869     54 |        0 |       214       676 |
|     12338 |    2625   156723 16040814 |     7557     3895     54 |        0 |       322      1008 |
|     18312 |    2625   156931 16044004 |     8785     6097     62 |        0 |       459      1216 |
|     27398 |    2625   157368 16050004 |    11198     5796     49 |        0 |       630      1653 |
|     41063 |    2625   158059 16058490 |    13612     7675     47 |        0 |       840      2344 |
|     61266 |    2625   158801 16069025 |    16009    13675     63 |        0 |      1007      3086 |
|     91017 |    2625   159360 16076319 |    19610    17627     55 |        0 |      1166      3645 |
|    135766 |    2625   160320 16090042 |    24410    19576     58 |        0 |      1384      4605 |
|    203481 |    2563   162351 16117606 |    30411    20292     46 |        0 |      1933      6636 |
|    305596 |    2563   165940 16165367 |    37612    22208     41 |        1 |      3184     10224 |
|    454982 |    2563   167537 16191811 |    46011    27393     37 |        1 |      3714     11821 |
=====================================================================================================
Number of solutions   : 1
Canonical subgraphs   : 4750           (16 /sec)
          order  3    : 1              (200000 /sec)
          order  4    : 1              (500000 /sec)
          order  5    : 1              (250000 /sec)
          order  6    : 1              (47619 /sec)
          order  7    : 1              (7692 /sec)
          order  8    : 2              (1234 /sec)
          order  9    : 5              (485 /sec)
          order 10    : 11             (316 /sec)
          order 11    : 27             (173 /sec)
          order 12    : 78             (103 /sec)
          order 13    : 92             (68 /sec)
          order 14    : 78             (45 /sec)
          order 15    : 662            (29 /sec)
          order 16    : 520            (21 /sec)
          order 17    : 1513           (16 /sec)
          order 18    : 1252           (12 /sec)
          order 19    : 322            (12 /sec)
          order 20    : 91             (12 /sec)
          order 21    : 91             (12 /sec)
          order 22    : 1              (1 /sec)
Noncanonical subgraphs: 14178          (125 /sec)
          order  3    : 0              (-nan /sec)
          order  4    : 0              (-nan /sec)
          order  5    : 0              (-nan /sec)
          order  6    : 0              (-nan /sec)
          order  7    : 0              (-nan /sec)
          order  8    : 0              (-nan /sec)
          order  9    : 0              (-nan /sec)
          order 10    : 0              (-nan /sec)
          order 11    : 0              (-nan /sec)
          order 12    : 0              (-nan /sec)
          order 13    : 308            (14216 /sec)
          order 14    : 371            (9948 /sec)
          order 15    : 1981           (1394 /sec)
          order 16    : 1698           (731 /sec)
          order 17    : 8870           (105 /sec)
          order 18    : 850            (53 /sec)
          order 19    : 2              (817 /sec)
          order 20    : 0              (-nan /sec)
          order 21    : 0              (-nan /sec)
Canonicity checking   : 293.395 s
Noncanonicity checking: 113.432 s
Total canonicity time : 406.828 s
database reductions   : 40
restarts              : 1149
conflicts             : 551313         (1012 /sec)
decisions             : 700164         (0.00 % random) (1285 /sec)
propagations          : 18885923       (34668 /sec)
conflict literals     : 49195258       (56.78 % deleted)
actual reward         : 0.369994
Memory used           : 227.00 MB
CPU time              : 544.763 s

UNSATISFIABLE
